3

O        0.06633400       0.00000000       0.00370100
H       -0.52638300      -0.76932700      -0.02936600
H       -0.52638300       0.76932700      -0.02936600
3

O        0.05753600       0.00000000      -0.03321900
H       -0.84123400      -0.00000000      -0.40265600
H       -0.07190700       0.00000000       0.92985800
3

O        0.03321900       0.00000000      -0.05753600
H       -0.84056800      -0.38472300       0.12344900
H        0.31335500       0.38472300       0.78968500
3

O        0.03322800       0.00000000      -0.05753100
H       -0.84064700      -0.38460300       0.12328300
H        0.31329100       0.38460300       0.78976900
3

O        0.03322400       0.00000000      -0.05753300
H       -0.26352200      -0.76932700       0.45661600
H       -0.26376200       0.76932700       0.45647700
3

O        0.03321900       0.00000000      -0.05753600
H        0.31341500      -0.38460300       0.78971900
H       -0.84062700       0.38460300       0.12341400
3

O        0.05754100       0.00000000      -0.03321000
H       -0.84117100      -0.00000000      -0.40278700
H       -0.07205200       0.00000000       0.92984600
3

O        0.00000000       0.00000000      -0.06643700
H        0.38466400       0.66625700       0.52720200
H       -0.38466400      -0.66625700       0.52720200
3

O        0.00000000       0.00000000      -0.06643700
H        0.76932700       0.00000000       0.52720200
H       -0.76932700       0.00000000       0.52720200
3

O        0.05754400       0.00000000      -0.03320500
H       -0.84113900       0.00012000      -0.40285300
H       -0.07212500      -0.00012000       0.92984100
3

O        0.05754200       0.00000000      -0.03320800
H       -0.84116100       0.00009300      -0.40280700
H       -0.07207400      -0.00009300       0.92984400
3

O        0.00000000       0.00000000      -0.06643700
H        0.76932700       0.00000000       0.52720200
H       -0.76932700       0.00000000       0.52720200
3

O        0.00000900       0.00000000      -0.06643700
H        0.38459000       0.66625700       0.52725500
H       -0.38473700      -0.66625700       0.52714800
3

O        0.05754500       0.00000000      -0.03320300
H       -0.07216500      -0.00000000       0.92983800
H       -0.84112200       0.00000000      -0.40288900
3

O        0.06635000       0.00000000       0.00339500
H       -0.56509400       0.14731000       0.72716800
H       -0.48793200      -0.14731000      -0.78104300
