9
Properties=species:S:1:pos:R:3:forces:R:3 energy=-4215.393831743561 pbc="F F F"
C        0.01427495      -0.56629881      -0.00000000      -0.00071156      -0.00045364      -0.00000000
C       -1.26688028       0.24548659      -0.00000000       0.00025971       0.00011940       0.00000000
O        1.11986056       0.35885913       0.00000000      -0.00041110      -0.00010713       0.00000000
H        0.04587143      -1.21797207       0.89522134       0.00009081       0.00018609       0.00082146
H        0.04587143      -1.21797207      -0.89522134       0.00009081       0.00018609      -0.00082146
H       -1.31513698       0.88762996       0.89029462       0.00004067      -0.00000003       0.00001502
H       -1.31513698       0.88762996      -0.89029462       0.00004067      -0.00000003      -0.00001502
H       -2.13945751      -0.42322767      -0.00000000       0.00054910      -0.00001354      -0.00000000
H        1.94983341      -0.15623502      -0.00000000       0.00005089       0.00008279       0.00000000
