9

C        0.00720000      -0.56870000       0.00000000
C       -1.28540000       0.24990000       0.00000000
O        1.13040000       0.31470000       0.00000000
H        0.03920000      -1.19720000       0.89000000
H        0.03920000      -1.19720000      -0.89000000
H       -1.31750000       0.87840000       0.89000000
H       -1.31750000       0.87840000      -0.89000000
H       -2.14220000      -0.42390000       0.00000000
H        1.98570000      -0.13650000       0.00000000
9

C        0.01091438      -0.56561286       0.00000606
C       -1.28267379       0.24952695       0.00140126
O        1.12941716       0.31430616      -0.00087196
H        0.04444461      -1.20165530       0.88910577
H        0.00760588      -1.18562618      -0.88518669
H       -1.33804198       0.86891514       0.88438583
H       -1.31870767       0.87074740      -0.89765591
H       -2.14517313      -0.42468869      -0.00540171
H        1.97562651      -0.15178212       0.01182386
9

C        0.01458021      -0.56246406       0.00008641
C       -1.27984252       0.24907129       0.00274060
O        1.12842119       0.31405278      -0.00175312
H        0.04956210      -1.20694485       0.88879920
H       -0.02371049      -1.17550793      -0.88181557
H       -1.35873455       0.86050926       0.87983614
H       -1.32010943       0.86356824      -0.90548563
H       -2.14837039      -0.42571572      -0.01083925
H        1.96550644      -0.16806846       0.02364611
9

C        0.01813987      -0.55925721       0.00030488
C       -1.27695738       0.24850316       0.00396281
O        1.12743225       0.31392784      -0.00265255
H        0.05454682      -1.21285013       0.88882048
H       -0.05439290      -1.16716263      -0.88036402
H       -1.37949473       0.85366562       0.87685812
H       -1.32163750       0.85680232      -0.91318440
H       -2.15142884      -0.42689713      -0.01634547
H        1.95545193      -0.18517750       0.03546595
9

C        0.02154011      -0.55600917       0.00070714
C       -1.27406705       0.24780447       0.00502749
O        1.12647630       0.31391461      -0.00357901
H        0.05939727      -1.21913241       0.88888352
H       -0.08412648      -1.16073740      -0.88107338
H       -1.40026170       0.84872837       0.87578131
H       -1.32322373       0.85037975      -0.92044864
H       -2.15399944      -0.42815585      -0.02195050
H        1.94547388      -0.20287019       0.04728440
