9
Properties=species:S:1:pos:R:3 ID=1 dst_idx=NONE src_idx=NONE offsets=NONE energy=-97207.59 forces="_JSON [[3.6532020568847656, 5.086544990539551, 2.014790879911743e-06], [16.381736755371094, -6.237934589385986, -1.4877045941830147e-06], [-1.508544921875, 26.553855895996094, 7.387731102426187e-07], [-1.9601231813430786, -11.078109741210938, 9.691813468933105], [-1.9601224660873413, -11.078110694885254, -9.691815376281738], [-2.4096202850341797, 5.651432037353516, 5.3084893226623535], [-2.4096193313598633, 5.651431560516357, -5.308489799499512], [-6.91668176651001, -2.8803067207336426, 5.002341936233279e-07], [-2.8702239990234375, -11.668805122375488, 1.1896688079104933e-09]]" pbc="F F F"
C        0.00720000      -0.56870000       0.00000000
C       -1.28540000       0.24990000       0.00000000
O        1.13040000       0.31470000       0.00000000
H        0.03920000      -1.19720000       0.89000000
H        0.03920000      -1.19720000      -0.89000000
H       -1.31750000       0.87840000       0.89000000
H       -1.31750000       0.87840000      -0.89000000
H       -2.14220000      -0.42390000       0.00000000
H        1.98570000      -0.13650000       0.00000000
9
Properties=species:S:1:pos:R:3 ID=2 dst_idx=NONE src_idx=NONE offsets=NONE energy=-97207.57 forces="_JSON [[-3.1205101013183594, 6.080692291259766, 8.102984428405762], [10.72000503540039, -10.434786796569824, -6.8916192054748535], [0.30977630615234375, 25.44615364074707, -1.393610954284668], [-2.029569387435913, -9.322967529296875, 7.781681060791016], [1.7645306587219238, -15.084161758422852, -15.59844970703125], [-1.3573799133300781, 10.934733390808105, 11.023978233337402], [-1.8173446655273438, 5.288013458251953, -2.6432178020477295], [-3.6459269523620605, -2.2408697605133057, -0.3708251714706421], [-0.8235816955566406, -10.666810035705566, -0.01092153787612915]]" pbc="F F F"
C        0.01091438      -0.56561286       0.00000606
C       -1.28267379       0.24952695       0.00140126
O        1.12941716       0.31430616      -0.00087196
H        0.04444461      -1.20165530       0.88910577
H        0.00760588      -1.18562618      -0.88518669
H       -1.33804198       0.86891514       0.88438583
H       -1.31870767       0.87074740      -0.89765591
H       -2.14517313      -0.42468869      -0.00540171
H        1.97562651      -0.15178212       0.01182386
9
Properties=species:S:1:pos:R:3 ID=3 dst_idx=NONE src_idx=NONE offsets=NONE energy=-97207.26 forces="_JSON [[-9.626949310302734, 5.430758476257324, 15.050731658935547], [4.8708343505859375, -13.673807144165039, -13.12359619140625], [3.1810998916625977, 23.67080307006836, -2.706691265106201], [-2.0890538692474365, -7.111368179321289, 5.33389139175415], [5.218184947967529, -17.951284408569336, -19.930755615234375], [-0.4851236343383789, 15.48497200012207, 15.808494567871094], [-1.2088069915771484, 4.705347061157227, 0.32210761308670044], [-0.21956396102905273, -1.51094388961792, -0.7087851762771606], [0.3593788146972656, -9.044476509094238, -0.04539597034454346]]" pbc="F F F"
C        0.01458021      -0.56246406       0.00008641
C       -1.27984252       0.24907129       0.00274060
O        1.12842119       0.31405278      -0.00175312
H        0.04956210      -1.20694485       0.88879920
H       -0.02371049      -1.17550793      -0.88181557
H       -1.35873455       0.86050926       0.87983614
H       -1.32010943       0.86356824      -0.90548563
H       -2.14837039      -0.42571572      -0.01083925
H        1.96550644      -0.16806846       0.02364611
9
Properties=species:S:1:pos:R:3 ID=4 dst_idx=NONE src_idx=NONE offsets=NONE energy=-97206.78 forces="_JSON [[-15.986927032470703, 2.837092399597168, 19.8651065826416], [-0.9585227966308594, -15.46707534790039, -17.778291702270508], [7.019889831542969, 21.269147872924805, -3.832862138748169], [-2.1465654373168945, -4.612975597381592, 2.658066511154175], [8.512650489807129, -19.28314971923828, -22.070070266723633], [0.3199748992919922, 18.790424346923828, 18.971736907958984], [-0.6114292144775391, 4.067980766296387, 3.3170783519744873], [3.157393217086792, -0.8322417736053467, -0.9898369908332825], [0.6935501098632812, -6.769197463989258, -0.1409287452697754]]" pbc="F F F"
C        0.01813987      -0.55925721       0.00030488
C       -1.27695738       0.24850316       0.00396281
O        1.12743225       0.31392784      -0.00265255
H        0.05454682      -1.21285013       0.88882048
H       -0.05439290      -1.16716263      -0.88036402
H       -1.37949473       0.85366562       0.87685812
H       -1.32163750       0.85680232      -0.91318440
H       -2.15142884      -0.42689713      -0.01634547
H        1.95545193      -0.18517750       0.03546595
9
Properties=species:S:1:pos:R:3 ID=5 dst_idx=NONE src_idx=NONE offsets=NONE energy=-97206.19 forces="_JSON [[-22.241432189941406, -1.5090136528015137, 22.162782669067383], [-6.760568618774414, -15.48609733581543, -20.245590209960938], [11.771408081054688, 18.302644729614258, -4.730441093444824], [-2.2135579586029053, -2.0716686248779297, -0.03749537467956543], [11.778267860412598, -18.989299774169922, -21.773223876953125], [1.2365789413452148, 20.440969467163086, 19.970462799072266], [-0.029302597045898438, 3.4892759323120117, 6.164329528808594], [6.199474334716797, -0.3158528804779053, -1.180781364440918], [0.25913238525390625, -3.860963821411133, -0.330047607421875]]" pbc="F F F"
C        0.02154011      -0.55600917       0.00070714
C       -1.27406705       0.24780447       0.00502749
O        1.12647630       0.31391461      -0.00357901
H        0.05939727      -1.21913241       0.88888352
H       -0.08412648      -1.16073740      -0.88107338
H       -1.40026170       0.84872837       0.87578131
H       -1.32322373       0.85037975      -0.92044864
H       -2.15399944      -0.42815585      -0.02195050
H        1.94547388      -0.20287019       0.04728440
